unsat
(define-fun skel ((n71 Bool) (n84 Bool) (n77 Bool) (n240 Bool)) Bool (and n240 (not (and n71 (and n84 n77)))))
0.09user 0.01system 0:00.10elapsed 99%CPU (0avgtext+0avgdata 27308maxresident)k
8inputs+8outputs (0major+1544minor)pagefaults 0swaps
